100
32
26
1
1
10
11
30
17
16
7
13
19
9
8
10
1
14
1
10
1
10
1
1
17
1
16
1
2
3
1
2
4
19
1
4
1
18
3
5
4
10
2
1
1
1
3
1
2
5
2
17
1
3
1
17
3
1
2
2
1
2
1
4
3
1
17
20
1
3
1
3
1
2
8
3
2
1
1
2
6
1
2
1
2
1
1
20
1
1
2
1
1
1
1
2
2
1
19
2
3
2